p cnf 44 113
-17 2 0
17 0
-18 1 0
-18 2 0
-18 3 0
18 0
-19 1 0
-19 3 0
-19 4 0
19 0
-20 4 0
20 0
-21 -2 0
-21 5 0
-21 6 0
-22 2 0
-22 -5 0
-22 6 0
-23 2 0
-23 5 0
-23 -6 0
21 22 23 0
-24 -4 0
-24 8 0
-25 4 0
-25 -8 0
24 25 0
-26 -4 0
-26 -8 0
-26 12 0
-27 -4 0
-27 8 0
-27 -12 0
-28 4 0
-28 -8 0
-28 -12 0
26 27 28 0
-29 -8 0
-29 -12 0
-29 15 0
-29 16 0
-30 -8 0
-30 12 0
-30 -15 0
-30 16 0
-31 -8 0
-31 12 0
-31 15 0
-31 -16 0
-32 8 0
-32 -12 0
-32 -15 0
-32 16 0
-33 8 0
-33 -12 0
-33 15 0
-33 -16 0
-34 8 0
-34 12 0
-34 -15 0
-34 -16 0
29 30 31 32 33 34 0
-35 -10 0
-35 -11 0
-35 -12 0
-35 14 0
-35 15 0
-36 -10 0
-36 -11 0
-36 12 0
-36 -14 0
-36 15 0
-37 -10 0
-37 -11 0
-37 12 0
-37 14 0
-37 -15 0
-38 -10 0
-38 11 0
-38 -12 0
-38 -14 0
-38 15 0
-39 -10 0
-39 11 0
-39 -12 0
-39 14 0
-39 -15 0
-40 -10 0
-40 11 0
-40 12 0
-40 -14 0
-40 -15 0
-41 10 0
-41 -11 0
-41 -12 0
-41 -14 0
-41 15 0
-42 10 0
-42 -11 0
-42 -12 0
-42 14 0
-42 -15 0
-43 10 0
-43 -11 0
-43 12 0
-43 -14 0
-43 -15 0
-44 10 0
-44 11 0
-44 -12 0
-44 -14 0
-44 -15 0
35 36 37 38 39 40 41 42 43 44 0
